CSiF2-CSi-CSiF2
 1.000000
    3.1250820362486267    0.0000000000000000    0.0000000000000000
   -1.5625224629534709    2.7064148828724890    0.0000000000000000
    0.0000000000000000    0.0000000000000000   30.0000000000000000
   C    F    Si
     3     4     3
Selective Dynamics
Direct
    0.6666674800777770    0.3333333044538875    0.3345815849074314    T  T  T     C001
    0.6666673376672705    0.3333333037406376    0.4901632856188251    T  T  T     C002
    0.6666673380119761    0.3333333039129869    0.1558867509300071    T  T  T     C003
    0.6666691610035684    0.3333340664802833    0.4418330323795228    T  T  T     F001
    0.6666693146468674    0.3333341433019328    0.1077209435301860    T  T  T     F002
    0.3333331191574089    0.6666659460052102    0.5627467833211740    T  T  T     F003
    0.3333329418416184    0.6666658573473114    0.2284945718856261    T  T  T     F004
    0.3333340225531387    0.6666664660360624    0.3346650965943171    T  T  T    Si001
    0.3333341514881951    0.6666666067785982    0.5091550710625248    T  T  T    Si002
    0.3333341326291617    0.6666665973490851    0.1747528797713910    T  T  T    Si003
