SiSn                                    
   1.00000000000000     
     3.6650699129261581   -2.1160118518161926    0.0000000000000000
     3.6650699365252160    2.1160118884167551    0.0000000000000000
     0.0000000000000000    0.0000000000000000   20.0000000000000000
   Si   Sn
     1     1
Direct
     0.3333340437459569    0.3333340384547299    0.1887573235502202
     0.6666659562540431    0.6666659615452701    0.2212426764497835
