CSi                                     
   1.00000000000000     
     2.6593882597107679   -1.5353688288449832    0.0000000000000000
     2.6593883124432445    1.5353689199023393    0.0000000000000000
     0.0000000000000000    0.0000000000000000   20.0000000000000000
   C    Si
     1     1
Direct
     0.3333325967376979    0.3333326189063399    0.2049999358252990
     0.6666674032623021    0.6666673810936601    0.2050000641747047
