CSi-CSiF2-CSi
 1.000000
    3.1080601895116144    0.0000000000000000    0.0000000000000000
   -1.5540123667243826    2.6916747143488746    0.0000000000000000
    0.0000000000000000    0.0000000000000000   30.0000000000000000
   C    F    Si
     3     2     3
Selective Dynamics
Direct
    0.6666671235173069    0.3333331261736490    0.1673231543459892    T  T  T     C001
    0.6666671156372459    0.3333331222336255    0.5055359686563002    T  T  T     C002
    0.6666671601755922    0.3333332149947950    0.3243741603038980    T  T  T     C003
    0.6666692827980967    0.3333341273775474    0.2760754788491918    T  T  T     F001
    0.3333331282433463    0.6666659505481789    0.3970717003510738    T  T  T     F002
    0.3333344794760578    0.6666666944975290    0.1674436200095478    T  T  T    Si001
    0.3333344822436644    0.6666666958813323    0.5054595305700958    T  T  T    Si002
    0.3333344271696816    0.6666667446193415    0.3433830535809047    T  T  T    Si003
