CSn                                     
   1.00000000000000     
     3.0772873038908957   -1.7767185046504237    0.0000000000000000
     3.0772857822479347    1.7767158588650465    0.0000000000000000
     0.0000000000000000    0.0000000000000000   20.0000000000000000
   C    Sn
     1     1
Direct
     0.3333310472229485    0.3333307405454349    0.2050017675636511
     0.6666689527770515    0.6666692594545651    0.2049982324363526
