CSi_CSiF2
 1.000000
    3.1161830659626926    0.0000000000000000    0.0000000000000000
   -1.5580764618088643    2.6987140526566220    0.0000000000000000
    0.0000000000000000    0.0000000000000000   25.0000000000000000
   C    F    Si
     2     2     2
Selective Dynamics
Direct
    0.6666376744493880    0.3333184016396896    0.1604337045148132    T  T  T     C001
    0.6666580534086723    0.3333286616113306    0.3486793901247032    T  T  T     C002
    0.6666591292509988    0.3333290506039980    0.2906930337571171    T  T  T     F001
    0.3333576296776037    0.6666782012653052    0.4358760659741128    T  T  T     F002
    0.3333534393162470    0.6666761744176308    0.1607660717026484    T  T  T    Si001
    0.3333394733430859    0.6666692677060442    0.3715517339265992    T  T  T    Si002
