CGe                                     
   1.00000000000000     
     2.7887760645312847   -1.6100546226987946    0.0000000000000000
     2.7887759864954123    1.6100544877083640    0.0000000000000000
     0.0000000000000000    0.0000000000000000   20.0000000000000000
   C    Ge
     1     1
Direct
     0.3333372554583178    0.3333372740101197    0.2050009388690910
     0.6666627445416822    0.6666627259898803    0.2049990611309127
