CSiF-CSiF
 1.000000
    3.0998286071715220    0.0000000000000000    0.0000000000000000
   -1.5498932210265495    2.6845400259622623    0.0000000000000000
    0.0000000000000000    0.0000000000000000   30.0000000000000000
   C    F    Si
     3     2     3
Selective Dynamics
Direct
    0.6666686318824866    0.3333338803561635    0.3136616501259067    T  T  T     C001
    0.6666533686039720    0.3333263192094425    0.3683962314848419    T  T  T     C002
    0.6666845120970325    0.3333418909556793    0.1907537357856551    T  T  T     C003
    0.6666811429951713    0.3333400574760808    0.1430553304358508    T  T  T     F001
    0.3333128771473809    0.6666558250002662    0.4428010558795651    T  T  T     F002
    0.3333372984984461    0.6666681040087786    0.2910680403730293    T  T  T    Si001
    0.3333177005186894    0.6666583812933641    0.3893573422370604    T  T  T    Si002
    0.3333513182878131    0.6666751901782201    0.2115209608200898    T  T  T    Si003
