SiGe                                    
   1.00000000000000     
     3.3874108172845894   -1.9558125636390080    0.0000000000000000
     3.3874111844785864    1.9558132063830598    0.0000000000000000
     0.0000000000000000    0.0000000000000000   20.0000000000000000
   Si   Ge
     1     1
Direct
     0.3333309986685578    0.3333312783088047    0.1919083113164106
     0.6666690013314422    0.6666687216911953    0.2180916886835931
