GeSn                                    
   1.00000000000000     
     3.7228953757142906   -2.1496522580266713    0.0000000000000000
     3.7228953694472859    2.1496522472453949    0.0000000000000000
     0.0000000000000000    0.0000000000000000   20.0000000000000000
   Ge   Sn
     1     1
Direct
     0.3333236524730907    0.3333236419470467    0.1864118642461321
     0.6666763475269093    0.6666763580529533    0.2235881357538716
